% demand
num_movements = 22;
loading_factor = [1350, 1850, 1450, 1850, 1600, 1550, 1950, 1350, 1350, 1550, 1650, 1200, 850, 800, 1350, 1250, 1450, 900, 1900, 1850, 1900, 1200];
pickup_time = [0, 0, 1, 1, 1, 1, 2, 3, 3, 3, 4, 5, 6, 6, 6, 7, 7, 7, 8, 8, 8, 8];
delivery_time = [1, 1, 7, 3, 3, 2, 3, 7, 6, 4, 6, 7, 7, 7, 7, 8, 8, 8, 9, 9, 9, 9];

% transporter definition
total_capacity = 7000;
num_decks = 3;
capacity = [3000, 1000, 3000];

% ways out of decks
num_ways_out = 1;
paths_out = array3d(decks, ways_out, decks, [
% ways out of deck d1
2, 3, 0, 

% ways out of deck d2
3, 0, 0, 

% ways out of deck d3
0, 0, 0,	

]);

